(set-option :print-success false)
(set-logic QF_UF)
(declare-sort x26 0)
(declare-sort x25 0)
(declare-fun x68 () x25)
(declare-fun x47 (x25 x25) x25)
(declare-fun x91 () x25)
(declare-fun x105 () x25)
(declare-fun x22 () x25)
(declare-fun x132 (x25 x25) x25)
(declare-fun x30 () x25)
(assert (not (and (= (x47 x91 x91) x30) (and (and (= (x47 x91 x105) x22) (and (= (x47 x91 x68) x105) (and (and (= x68 (x47 x22 x91)) (and (= x22 (x47 x22 x22)) (and (= (x47 x22 x105) x30) (and (= x91 (x47 x22 x68)) (and (and (= x22 (x47 x105 x91)) (and (and (= x105 (x47 x105 x105)) (and (= x68 (x47 x105 x68)) (and (= x91 (x47 x105 x30)) (and (= (x47 x68 x91) x91) (and (= x105 (x47 x68 x22)) (and (and (and (= x22 (x47 x68 x30)) (and (= (x47 x30 x91) x105) (and (= (x47 x30 x22) x68) (and (and (= x22 (x47 x30 x68)) (= (x47 x30 x30) x30)) (= (x47 x30 x105) x91))))) (= (x47 x68 x68) x30)) (= (x47 x68 x105) x68))))))) (= (x47 x105 x22) x30))) (= (x47 x22 x30) x105)))))) (= (x47 x91 x30) x68)))) (= (x47 x91 x22) x91)))))
(assert (let ((x99 (x47 x22 x22)) (x159 (x47 x91 x91)) (x12 (x47 x105 x105)) (x34 (x47 x68 x68)) (x128 (x47 x30 x30))) (or (and (not (= x91 x159)) (and (not (= x99 x91)) (and (and (not (= x128 x91)) (not (= x91 x34))) (not (= x91 x12))))) (or (or (and (not (= x105 x159)) (and (and (and (not (= x105 x128)) (not (= x34 x105))) (not (= x105 x12))) (not (= x105 x99)))) (or (and (not (= x159 x68)) (and (and (not (= x12 x68)) (and (not (= x34 x68)) (not (= x68 x128)))) (not (= x99 x68)))) (and (and (and (not (= x30 x12)) (and (not (= x30 x128)) (not (= x34 x30)))) (not (= x99 x30))) (not (= x30 x159))))) (and (not (= x22 x159)) (and (not (= x99 x22)) (and (not (= x22 x12)) (and (not (= x128 x22)) (not (= x22 x34))))))))))
(assert (let ((x34 (= x68 (x47 x68 x68))) (x99 (= (x47 x22 x22) x22)) (x12 (= (x47 x105 x105) x105)) (x128 (= x30 (x47 x30 x30))) (x159 (= (x47 x91 x91) x91))) (and (and (or (not x159) x159) (and (or (not (= (x47 x91 x22) x91)) x99) (and (and (or x34 (not (= x91 (x47 x91 x68)))) (or x128 (not (= (x47 x91 x30) x91)))) (or (not (= (x47 x91 x105) x91)) x12)))) (and (and (and (and (and (or x34 (not (= (x47 x22 x68) x22))) (or x128 (not (= x22 (x47 x22 x30))))) (or x12 (not (= x22 (x47 x22 x105))))) (or x99 (not x99))) (or (not (= x22 (x47 x22 x91))) x159)) (and (and (and (and (or x99 (not (= x30 (x47 x30 x22)))) (and (and (or (not (= x30 (x47 x30 x68))) x34) (or x128 (not x128))) (or (not (= x30 (x47 x30 x105))) x12))) (or x159 (not (= (x47 x30 x91) x30)))) (and (and (and (and (or x34 (not x34)) (or x128 (not (= x68 (x47 x68 x30))))) (or (not (= x68 (x47 x68 x105))) x12)) (or x99 (not (= (x47 x68 x22) x68)))) (or x159 (not (= x68 (x47 x68 x91)))))) (and (and (or (not (= x105 (x47 x105 x22))) x99) (and (and (or x128 (not (= x105 (x47 x105 x30)))) (or x34 (not (= (x47 x105 x68) x105)))) (or (not x12) x12))) (or x159 (not (= (x47 x105 x91) x105)))))))))
(assert (and (= x22 (x47 x105 x91)) (and (and (= x68 (x47 x22 x91)) (= (x47 x91 x91) x30)) (= (x47 x30 x91) x105))))
(assert (and (and (not (= x105 x91)) (and (not (= x105 x22)) (and (not (= x91 x68)) (and (not (= x22 x68)) (and (and (and (and (not (= x30 x105)) (not (= x30 x68))) (not (= x30 x22))) (not (= x30 x91))) (not (= x68 x105))))))) (not (= x91 x22))))
(assert (or (or (or (or (and (not (= (x47 x68 (x47 x68 x91)) x91)) (and (and (not (= x105 (x47 x68 (x47 x68 x105)))) (and (not (= x30 (x47 x68 (x47 x68 x30)))) (not (= (x47 x68 (x47 x68 x68)) x68)))) (not (= (x47 x68 (x47 x68 x22)) x22)))) (and (and (and (and (not (= x68 (x47 x30 (x47 x30 x68)))) (not (= (x47 x30 (x47 x30 x30)) x30))) (not (= x105 (x47 x30 (x47 x30 x105))))) (not (= (x47 x30 (x47 x30 x22)) x22))) (not (= (x47 x30 (x47 x30 x91)) x91)))) (and (and (and (not (= (x47 x105 (x47 x105 x105)) x105)) (and (not (= (x47 x105 (x47 x105 x30)) x30)) (not (= (x47 x105 (x47 x105 x68)) x68)))) (not (= (x47 x105 (x47 x105 x22)) x22))) (not (= x91 (x47 x105 (x47 x105 x91)))))) (and (not (= x91 (x47 x22 (x47 x22 x91)))) (and (not (= x22 (x47 x22 (x47 x22 x22)))) (and (not (= (x47 x22 (x47 x22 x105)) x105)) (and (not (= x30 (x47 x22 (x47 x22 x30)))) (not (= (x47 x22 (x47 x22 x68)) x68))))))) (and (and (not (= (x47 x91 (x47 x91 x22)) x22)) (and (and (not (= (x47 x91 (x47 x91 x30)) x30)) (not (= x68 (x47 x91 (x47 x91 x68))))) (not (= x105 (x47 x91 (x47 x91 x105)))))) (not (= x91 (x47 x91 (x47 x91 x91)))))))
(assert (let ((x156 (x47 x105 x105)) (x28 (x47 x22 x68)) (x31 (x47 x22 x22)) (x12 (x47 x30 x68)) (x71 (x47 x68 x22)) (x103 (x47 x105 x22)) (x117 (x47 x30 x105)) (x66 (x47 x91 x30)) (x109 (x47 x22 x91)) (x34 (x47 x68 x30)) (x48 (x47 x22 x30)) (x99 (x47 x68 x68)) (x129 (x47 x91 x91)) (x128 (x47 x30 x30)) (x19 (x47 x30 x22)) (x44 (x47 x91 x68)) (x101 (x47 x68 x91)) (x153 (x47 x91 x105)) (x56 (x47 x30 x91)) (x84 (x47 x22 x105)) (x159 (x47 x105 x30)) (x62 (x47 x91 x22)) (x4 (x47 x105 x91)) (x43 (x47 x105 x68)) (x151 (x47 x68 x105))) (or (or (or (or (and (and (and (= x151 x43) (and (= x99 x99) (= x12 x34))) (= x71 x28)) (= x44 x101)) (and (and (and (and (= x34 x12) (= x128 x128)) (= x159 x117)) (= x19 x48)) (= x56 x66))) (and (and (= x84 x103) (and (= x156 x156) (and (= x159 x117) (= x151 x43)))) (= x4 x153))) (and (and (and (and (= x19 x48) (= x28 x71)) (= x103 x84)) (= x31 x31)) (= x62 x109))) (and (and (= x109 x62) (and (= x153 x4) (and (= x66 x56) (= x101 x44)))) (= x129 x129)))))
(assert (and (and (and (or (or (= (x47 (x47 x22 x105) x22) x105) (or (= x105 (x47 (x47 x105 x105) x105)) (or (= (x47 (x47 x68 x105) x68) x105) (= (x47 (x47 x30 x105) x30) x105)))) (= x105 (x47 (x47 x91 x105) x91))) (and (or (= (x47 (x47 x91 x30) x91) x30) (or (or (or (= (x47 (x47 x68 x30) x68) x30) (= (x47 (x47 x30 x30) x30) x30)) (= x30 (x47 (x47 x105 x30) x105))) (= x30 (x47 (x47 x22 x30) x22)))) (or (or (or (or (= (x47 (x47 x68 x68) x68) x68) (= x68 (x47 (x47 x30 x68) x30))) (= x68 (x47 (x47 x105 x68) x105))) (= x68 (x47 (x47 x22 x68) x22))) (= (x47 (x47 x91 x68) x91) x68)))) (or (or (= x22 (x47 (x47 x22 x22) x22)) (or (= x22 (x47 (x47 x105 x22) x105)) (or (= (x47 (x47 x30 x22) x30) x22) (= (x47 (x47 x68 x22) x68) x22)))) (= x22 (x47 (x47 x91 x22) x91)))) (or (= x91 (x47 (x47 x91 x91) x91)) (or (or (= x91 (x47 (x47 x105 x91) x105)) (or (= (x47 (x47 x30 x91) x30) x91) (= (x47 (x47 x68 x91) x68) x91))) (= (x47 (x47 x22 x91) x22) x91)))))
(assert (not (and (and (and (= x68 (x47 x91 x105)) (and (and (= (x47 x91 x30) x105) (and (and (= x30 (x47 x22 x22)) (and (= x22 (x47 x22 x105)) (and (and (and (and (= x91 (x47 x105 x22)) (and (and (and (= (x47 x105 x30) x68) (and (= (x47 x68 x91) x91) (and (= x105 (x47 x68 x22)) (and (= (x47 x68 x105) x30) (and (= (x47 x68 x68) x68) (and (= x22 (x47 x68 x30)) (and (= (x47 x30 x91) x105) (and (and (= (x47 x30 x105) x91) (and (= (x47 x30 x68) x22) (= (x47 x30 x30) x30))) (= (x47 x30 x22) x68))))))))) (= (x47 x105 x68) x30)) (= x105 (x47 x105 x105)))) (= x22 (x47 x105 x91))) (= (x47 x22 x30) x91)) (= x105 (x47 x22 x68))))) (= (x47 x22 x91) x68))) (= (x47 x91 x68) x91))) (= x22 (x47 x91 x22))) (= x30 (x47 x91 x91)))))
(assert (let ((x4 (x47 x68 x91)) (x13 (x47 x91 x68)) (x61 (x47 x91 x22)) (x24 (x47 x91 x91)) (x159 (x47 x30 x22)) (x117 (x47 x30 x91)) (x136 (x47 x105 x105)) (x156 (x47 x105 x30)) (x12 (x47 x30 x68)) (x101 (x47 x68 x105)) (x34 (x47 x30 x30)) (x153 (x47 x68 x22)) (x99 (x47 x30 x105)) (x48 (x47 x22 x30)) (x138 (x47 x22 x22)) (x147 (x47 x22 x91)) (x55 (x47 x22 x105)) (x97 (x47 x91 x105)) (x125 (x47 x105 x91)) (x151 (x47 x68 x30)) (x19 (x47 x91 x30)) (x121 (x47 x22 x68)) (x44 (x47 x68 x68)) (x59 (x47 x105 x22)) (x129 (x47 x105 x68))) (let ((x46 (= x22 x44)) (x79 (= x91 x59)) (x29 (= x22 x136)) (x2 (= x91 x12)) (x31 (= x12 x30)) (x87 (= x19 x91)) (x140 (= x4 x105)) (x115 (= x30 x101)) (x110 (= x156 x105)) (x133 (= x121 x30)) (x73 (= x4 x22)) (x67 (= x68 x24)) (x81 (= x30 x147)) (x51 (= x125 x105)) (x27 (= x48 x68)) (x108 (= x22 x101)) (x50 (= x22 x59)) (x107 (= x22 x97)) (x70 (= x91 x138)) (x63 (= x105 x147)) (x157 (= x68 x138)) (x52 (= x68 x136)) (x144 (= x91 x153)) (x54 (= x22 x125)) (x106 (= x101 x68)) (x145 (= x59 x68)) (x126 (= x68 x61)) (x65 (= x68 x4)) (x141 (= x153 x105)) (x109 (= x44 x68)) (x8 (= x159 x30)) (x36 (= x125 x30)) (x80 (= x105 x44)) (x130 (= x153 x22)) (x82 (= x121 x22)) (x148 (= x117 x22)) (x74 (= x129 x91)) (x142 (= x30 x55)) (x158 (= x99 x30)) (x155 (= x68 x97)) (x20 (= x59 x30)) (x35 (= x147 x68)) (x128 (= x30 x34)) (x118 (= x13 x68)) (x86 (= x147 x91)) (x21 (= x117 x68)) (x100 (= x30 x24)) (x152 (= x30 x156)) (x77 (= x22 x129)) (x57 (= x13 x91)) (x143 (= x101 x91)) (x1 (= x68 x125)) (x14 (= x105 x99)) (x32 (= x136 x91)) (x98 (= x105 x55)) (x3 (= x138 x105)) (x94 (= x22 x138)) (x103 (= x151 x30)) (x58 (= x22 x159)) (x119 (= x59 x105)) (x66 (= x44 x30)) (x17 (= x97 x30)) (x75 (= x101 x105)) (x88 (= x19 x68)) (x96 (= x129 x30)) (x112 (= x12 x105)) (x135 (= x30 x138)) (x16 (= x121 x105)) (x28 (= x34 x105)) (x37 (= x4 x91)) (x10 (= x99 x91)) (x122 (= x22 x24)) (x71 (= x22 x34)) (x90 (= x159 x105)) (x85 (= x30 x19)) (x113 (= x48 x22)) (x23 (= x105 x13)) (x69 (= x61 x30)) (x62 (= x68 x12)) (x154 (= x30 x153)) (x123 (= x121 x68)) (x39 (= x22 x55)) (x15 (= x105 x151)) (x41 (= x105 x48)) (x102 (= x13 x22)) (x150 (= x55 x91)) (x84 (= x91 x34)) (x127 (= x30 x13)) (x72 (= x91 x48)) (x7 (= x61 x105)) (x116 (= x91 x125)) (x38 (= x22 x19)) (x5 (= x68 x129)) (x131 (= x105 x117)) (x93 (= x156 x68)) (x139 (= x136 x30)) (x114 (= x117 x91)) (x49 (= x99 x68)) (x92 (= x156 x22)) (x43 (= x68 x34)) (x76 (= x4 x30)) (x89 (= x99 x22)) (x42 (= x91 x151)) (x45 (= x30 x117)) (x83 (= x136 x105)) (x111 (= x91 x121)) (x40 (= x68 x55)) (x64 (= x159 x68)) (x78 (= x61 x22)) (x134 (= x91 x24)) (x124 (= x91 x61)) (x146 (= x24 x105)) (x6 (= x22 x151)) (x18 (= x105 x19)) (x11 (= x105 x97)) (x95 (= x22 x147)) (x56 (= x68 x151)) (x9 (= x129 x105)) (x137 (= x44 x91)) (x53 (= x91 x97)) (x33 (= x156 x91)) (x149 (= x30 x48)) (x104 (= x159 x91)) (x60 (= x153 x68)) (x120 (= x12 x22))) (and (and (and (and (and (and (and (or (or (or x92 (or x6 x71)) x113) x38) (or (or (or x89 (or x120 x71)) x58) x148)) (and (and (or (or x90 (or (or x112 x28) x14)) x131) (or (or x41 (or (or x28 x15) x110)) x18)) (and (and (or x21 (or x64 (or (or x43 x62) x49))) (or (or (or (or x43 x56) x93) x27) x88)) (and (or (or x149 (or x152 (or x103 x128))) x85) (or (or x8 (or (or x31 x128) x158)) x45))))) (and (or (or (or x10 (or x84 x2)) x104) x114) (or (or x72 (or (or x42 x84) x33)) x87))) (and (and (or (or x144 (or x143 (or x137 x42))) x37) (or (or (or (or x2 x137) x74) x111) x57)) (and (and (and (or (or x16 (or (or x80 x112) x9)) x23) (or (or (or (or x80 x15) x75) x141) x140)) (and (and (or (or (or x96 (or x31 x66)) x133) x127) (or (or (or x115 (or x103 x66)) x154) x76)) (and (or x65 (or x60 (or x106 (or x109 x56)))) (or x118 (or (or x5 (or x109 x62)) x123))))) (and (or x73 (or x130 (or (or x6 x46) x108))) (or x102 (or (or (or x46 x120) x77) x82)))))) (and (and (or (or (or x32 (or x143 x10)) x150) x53) (or (or x79 (or (or x74 x33) x32)) x116)) (and (and (and (and (or (or x40 (or (or x49 x106) x52)) x155) (or (or (or x52 (or x93 x5)) x145) x1)) (and (or x17 (or (or (or x158 x115) x139) x142)) (or (or (or (or x96 x152) x139) x20) x36))) (and (or x51 (or (or (or x9 x110) x83) x119)) (or (or x98 (or (or x14 x75) x83)) x11))) (and (or (or (or (or x89 x108) x29) x39) x107) (or (or (or x29 (or x92 x77)) x50) x54))))) (and (and (or (or (or x150 (or x111 x72)) x70) x86) (or x124 (or x70 (or (or x104 x144) x79)))) (and (and (and (or x63 (or x3 (or x98 (or x16 x41)))) (or (or (or x119 (or x90 x141)) x3) x7)) (and (and (or x35 (or x157 (or (or x27 x123) x40))) (or (or x157 (or x145 (or x60 x64))) x126)) (and (or x81 (or x135 (or x142 (or x149 x133)))) (or x69 (or (or x20 (or x8 x154)) x135))))) (and (or (or (or x39 (or x82 x113)) x94) x95) (or x78 (or x94 (or x50 (or x58 x130)))))))) (and (and (or x134 (or (or (or x37 x114) x116) x86)) (or x134 (or x124 (or (or x87 x57) x53)))) (and (and (or (or (or (or x38 x102) x107) x78) x122) (or x122 (or x95 (or (or x148 x73) x54)))) (and (and (or x146 (or (or (or x140 x131) x51) x63)) (or (or (or (or x23 x18) x11) x7) x146)) (and (and (or x100 (or (or (or x45 x76) x36) x81)) (or x100 (or (or x17 (or x127 x85)) x69))) (and (or (or (or (or x65 x21) x1) x35) x67) (or (or x126 (or x155 (or x88 x118))) x67))))))))))
(assert (and (or (not (= x91 (x47 (x47 x91 x91) x91))) (or (or (or (not (= x68 (x47 (x47 x68 x91) x91))) (not (= x30 (x47 (x47 x30 x91) x91)))) (not (= x105 (x47 (x47 x105 x91) x91)))) (not (= (x47 (x47 x22 x91) x91) x22)))) (and (or (not (= (x47 (x47 x91 x22) x22) x91)) (or (or (or (not (= x30 (x47 (x47 x30 x22) x22))) (not (= (x47 (x47 x68 x22) x22) x68))) (not (= (x47 (x47 x105 x22) x22) x105))) (not (= x22 (x47 (x47 x22 x22) x22))))) (and (and (or (not (= (x47 (x47 x91 x30) x30) x91)) (or (or (not (= (x47 (x47 x105 x30) x30) x105)) (or (not (= x30 (x47 (x47 x30 x30) x30))) (not (= x68 (x47 (x47 x68 x30) x30))))) (not (= x22 (x47 (x47 x22 x30) x30))))) (or (not (= x91 (x47 (x47 x91 x68) x68))) (or (not (= (x47 (x47 x22 x68) x68) x22)) (or (or (not (= x68 (x47 (x47 x68 x68) x68))) (not (= x30 (x47 (x47 x30 x68) x68)))) (not (= x105 (x47 (x47 x105 x68) x68))))))) (or (or (not (= (x47 (x47 x22 x105) x105) x22)) (or (not (= x105 (x47 (x47 x105 x105) x105))) (or (not (= (x47 (x47 x30 x105) x105) x30)) (not (= x68 (x47 (x47 x68 x105) x105)))))) (not (= x91 (x47 (x47 x91 x105) x105))))))))
(assert (or (or (and (and (not (= x22 (x47 (x47 x22 x22) x22))) (and (not (= (x47 (x47 x22 x105) x22) x105)) (and (not (= x68 (x47 (x47 x22 x68) x22))) (not (= x30 (x47 (x47 x22 x30) x22)))))) (not (= (x47 (x47 x22 x91) x22) x91))) (or (and (not (= x91 (x47 (x47 x105 x91) x105))) (and (not (= (x47 (x47 x105 x22) x105) x22)) (and (not (= (x47 (x47 x105 x105) x105) x105)) (and (not (= x68 (x47 (x47 x105 x68) x105))) (not (= (x47 (x47 x105 x30) x105) x30)))))) (or (and (and (and (not (= (x47 (x47 x68 x105) x68) x105)) (and (not (= x30 (x47 (x47 x68 x30) x68))) (not (= (x47 (x47 x68 x68) x68) x68)))) (not (= (x47 (x47 x68 x22) x68) x22))) (not (= (x47 (x47 x68 x91) x68) x91))) (and (not (= x91 (x47 (x47 x30 x91) x30))) (and (and (and (not (= (x47 (x47 x30 x68) x30) x68)) (not (= (x47 (x47 x30 x30) x30) x30))) (not (= x105 (x47 (x47 x30 x105) x30)))) (not (= x22 (x47 (x47 x30 x22) x30)))))))) (and (and (not (= (x47 (x47 x91 x22) x91) x22)) (and (not (= (x47 (x47 x91 x105) x91) x105)) (and (not (= (x47 (x47 x91 x68) x91) x68)) (not (= x30 (x47 (x47 x91 x30) x91)))))) (not (= (x47 (x47 x91 x91) x91) x91)))))
(assert (let ((x2 (x47 x91 x30)) (x112 (x47 x68 x30)) (x75 (x47 x91 x105)) (x14 (x47 x105 x91)) (x55 (x47 x105 x105)) (x120 (x47 x30 x22)) (x139 (x47 x105 x68)) (x121 (x47 x30 x30)) (x80 (x47 x30 x105)) (x93 (x47 x68 x22)) (x33 (x47 x22 x22)) (x136 (x47 x68 x91)) (x6 (x47 x105 x30)) (x115 (x47 x68 x105)) (x42 (x47 x30 x91)) (x15 (x47 x30 x68)) (x46 (x47 x22 x30)) (x143 (x47 x91 x22)) (x110 (x47 x105 x22)) (x5 (x47 x22 x68)) (x96 (x47 x68 x68)) (x59 (x47 x91 x68)) (x10 (x47 x22 x91)) (x9 (x47 x22 x105)) (x27 (x47 x91 x91))) (let ((x64 (= x96 x105)) (x11 (= x121 x91)) (x44 (= x59 x30)) (x157 (= x105 x139)) (x54 (= x9 x91)) (x148 (= x5 x91)) (x131 (= x15 x91)) (x87 (= x91 x2)) (x39 (= x105 x42)) (x145 (= x80 x105)) (x147 (= x15 x105)) (x123 (= x68 x27)) (x97 (= x55 x68)) (x158 (= x96 x68)) (x113 (= x33 x105)) (x45 (= x22 x55)) (x43 (= x139 x30)) (x38 (= x115 x91)) (x76 (= x46 x22)) (x63 (= x91 x80)) (x124 (= x136 x91)) (x77 (= x68 x5)) (x35 (= x22 x14)) (x90 (= x5 x105)) (x134 (= x91 x27)) (x118 (= x22 x110)) (x122 (= x33 x91)) (x156 (= x30 x55)) (x58 (= x59 x105)) (x53 (= x59 x91)) (x67 (= x143 x22)) (x82 (= x105 x2)) (x48 (= x46 x30)) (x138 (= x112 x105)) (x32 (= x68 x2)) (x29 (= x110 x68)) (x65 (= x22 x136)) (x62 (= x143 x30)) (x126 (= x22 x2)) (x50 (= x75 x105)) (x7 (= x91 x112)) (x102 (= x91 x55)) (x119 (= x105 x9)) (x150 (= x105 x27)) (x107 (= x46 x91)) (x34 (= x112 x30)) (x92 (= x68 x120)) (x86 (= x10 x91)) (x57 (= x42 x91)) (x89 (= x93 x68)) (x41 (= x105 x55)) (x61 (= x115 x105)) (x125 (= x68 x6)) (x36 (= x120 x22)) (x154 (= x68 x14)) (x56 (= x42 x30)) (x108 (= x68 x9)) (x111 (= x105 x10)) (x127 (= x22 x80)) (x40 (= x105 x121)) (x130 (= x105 x136)) (x106 (= x68 x139)) (x100 (= x93 x22)) (x159 (= x30 x6)) (x117 (= x30 x80)) (x28 (= x5 x30)) (x69 (= x22 x115)) (x116 (= x143 x91)) (x66 (= x30 x2)) (x155 (= x22 x33)) (x135 (= x10 x68)) (x114 (= x91 x75)) (x78 (= x120 x91)) (x71 (= x93 x30)) (x149 (= x68 x42)) (x141 (= x93 x105)) (x49 (= x80 x68)) (x1 (= x22 x75)) (x3 (= x110 x105)) (x8 (= x75 x68)) (x12 (= x15 x30)) (x52 (= x115 x68)) (x4 (= x30 x14)) (x101 (= x136 x30)) (x142 (= x68 x136)) (x99 (= x96 x30)) (x94 (= x14 x105)) (x129 (= x30 x27)) (x128 (= x121 x30)) (x51 (= x6 x91)) (x79 (= x22 x15)) (x70 (= x96 x22)) (x24 (= x22 x42)) (x18 (= x10 x22)) (x144 (= x22 x112)) (x151 (= x30 x115)) (x137 (= x68 x112)) (x20 (= x143 x68)) (x73 (= x91 x93)) (x60 (= x6 x105)) (x13 (= x121 x68)) (x140 (= x91 x96)) (x109 (= x30 x10)) (x37 (= x91 x14)) (x103 (= x30 x110)) (x74 (= x33 x68)) (x153 (= x30 x75)) (x88 (= x22 x9)) (x152 (= x68 x15)) (x16 (= x46 x105)) (x95 (= x91 x110)) (x23 (= x22 x27)) (x104 (= x121 x22)) (x17 (= x22 x139)) (x146 (= x139 x91)) (x19 (= x120 x30)) (x31 (= x30 x33)) (x98 (= x105 x120)) (x84 (= x9 x30)) (x133 (= x68 x59)) (x85 (= x6 x22)) (x83 (= x68 x46)) (x72 (= x105 x143)) (x81 (= x5 x22)) (x21 (= x59 x22))) (and (and (or (or (and x23 x23) (or (or (or (and x21 x65) (and x126 x24)) (and x1 x35)) (and x67 x18))) (or (or (or (or (or (or (and x69 x17) (or (and x79 x144) (and x70 x70))) (and x81 x100)) (and x65 x21)) (or (or (or (or (and x104 x104) (and x144 x79)) (and x127 x85)) (and x76 x36)) (and x126 x24))) (or (or (or (and x45 x45) (or (and x127 x85) (and x69 x17))) (and x118 x88)) (and x1 x35))) (or (and x67 x18) (or (and x155 x155) (or (or (and x100 x81) (and x76 x36)) (and x88 x118)))))) (and (and (or (or (or (or (or (or (and x83 x92) (and x77 x89)) (and x108 x29)) (and x74 x74)) (and x20 x135)) (or (or (or (or (or (and x52 x106) (or (and x158 x158) (and x152 x137))) (and x77 x89)) (and x142 x133)) (or (or (or (or (and x137 x152) (and x13 x13)) (and x125 x49)) (and x92 x83)) (and x32 x149))) (or (or (and x108 x29) (or (or (and x125 x49) (and x52 x106)) (and x97 x97))) (and x154 x8)))) (or (and x123 x123) (or (and x20 x135) (or (or (and x133 x142) (and x32 x149)) (and x154 x8))))) (or (or (and x129 x129) (or (and x62 x109) (or (or (and x56 x66) (and x101 x44)) (and x4 x153)))) (or (or (and x62 x109) (or (and x31 x31) (or (and x84 x103) (or (and x28 x71) (and x19 x48))))) (or (or (or (and x56 x66) (or (or (and x117 x159) (or (and x34 x12) (and x128 x128))) (and x48 x19))) (or (and x101 x44) (or (and x71 x28) (or (or (and x34 x12) (and x99 x99)) (and x43 x151))))) (or (or (or (and x156 x156) (or (and x117 x159) (and x43 x151))) (and x103 x84)) (and x4 x153)))))) (or (or (or (and x72 x111) (or (and x113 x113) (or (or (and x90 x141) (and x98 x16)) (and x119 x3)))) (or (or (or (or (or (or (and x147 x138) (and x40 x40)) (and x145 x60)) (and x98 x16)) (and x82 x39)) (or (and x130 x58) (or (and x141 x90) (or (and x61 x157) (or (and x64 x64) (and x147 x138)))))) (or (and x94 x50) (or (or (or (and x61 x157) (and x60 x145)) (and x41 x41)) (and x3 x119))))) (or (and x150 x150) (or (or (or (and x39 x82) (and x58 x130)) (and x94 x50)) (and x72 x111)))))) (or (or (or (or (or (or (or (or (and x7 x131) (and x140 x140)) (and x146 x38)) (and x73 x148)) (and x53 x124)) (or (and x57 x87) (or (and x107 x78) (or (or (and x7 x131) (and x11 x11)) (and x63 x51))))) (or (and x114 x37) (or (and x95 x54) (or (or (and x63 x51) (and x146 x38)) (and x102 x102))))) (or (or (or (and x95 x54) (or (and x78 x107) (and x148 x73))) (and x122 x122)) (and x116 x86))) (or (and x134 x134) (or (and x116 x86) (or (or (and x87 x57) (and x124 x53)) (and x37 x114)))))))))
(assert (or (or (or (= (x47 x105 x105) x105) (or (= x68 (x47 x68 x68)) (= x30 (x47 x30 x30)))) (= x22 (x47 x22 x22))) (= (x47 x91 x91) x91)))
(assert (or (or (or (and (not (= x105 (x47 x91 (x47 x105 x91)))) (and (not (= x105 (x47 x22 (x47 x105 x22)))) (and (and (not (= x105 (x47 x68 (x47 x105 x68)))) (not (= x105 (x47 x30 (x47 x105 x30))))) (not (= x105 (x47 x105 (x47 x105 x105))))))) (or (and (and (and (not (= (x47 x105 (x47 x68 x105)) x68)) (and (not (= x68 (x47 x68 (x47 x68 x68)))) (not (= x68 (x47 x30 (x47 x68 x30)))))) (not (= (x47 x22 (x47 x68 x22)) x68))) (not (= (x47 x91 (x47 x68 x91)) x68))) (and (and (and (and (not (= x30 (x47 x68 (x47 x30 x68)))) (not (= x30 (x47 x30 (x47 x30 x30))))) (not (= x30 (x47 x105 (x47 x30 x105))))) (not (= x30 (x47 x22 (x47 x30 x22))))) (not (= x30 (x47 x91 (x47 x30 x91))))))) (and (not (= (x47 x91 (x47 x22 x91)) x22)) (and (not (= x22 (x47 x22 (x47 x22 x22)))) (and (and (not (= (x47 x68 (x47 x22 x68)) x22)) (not (= x22 (x47 x30 (x47 x22 x30))))) (not (= (x47 x105 (x47 x22 x105)) x22)))))) (and (and (and (not (= (x47 x105 (x47 x91 x105)) x91)) (and (not (= x91 (x47 x68 (x47 x91 x68)))) (not (= (x47 x30 (x47 x91 x30)) x91)))) (not (= (x47 x22 (x47 x91 x22)) x91))) (not (= (x47 x91 (x47 x91 x91)) x91)))))
(assert (let ((x28 (x47 x105 x68)) (x56 (x47 x22 x105)) (x151 (x47 x68 x105)) (x66 (x47 x22 x68)) (x101 (x47 x22 x91)) (x159 (x47 x30 x91)) (x48 (x47 x68 x91)) (x71 (x47 x105 x105)) (x153 (x47 x91 x30)) (x19 (x47 x105 x30)) (x99 (x47 x30 x22)) (x84 (x47 x105 x22)) (x44 (x47 x22 x22)) (x4 (x47 x91 x68)) (x31 (x47 x22 x30)) (x109 (x47 x91 x22)) (x103 (x47 x105 x91)) (x128 (x47 x30 x30)) (x117 (x47 x68 x30)) (x156 (x47 x68 x22)) (x62 (x47 x91 x105)) (x12 (x47 x30 x105)) (x43 (x47 x68 x68)) (x34 (x47 x30 x68)) (x129 (x47 x91 x91))) (and (and (and (and (and (and (and (and (or (or (or (= x128 x105) (or (= x128 x68) (= x128 x30))) (= x22 x128)) (= x128 x91)) (or (= x34 x91) (or (= x22 x34) (or (= x34 x105) (or (= x34 x30) (= x68 x34)))))) (or (or (or (= x12 x105) (or (= x12 x68) (= x30 x12))) (= x22 x12)) (= x91 x12))) (or (or (or (= x105 x99) (or (= x99 x30) (= x99 x68))) (= x99 x22)) (= x99 x91))) (or (= x159 x91) (or (or (= x105 x159) (or (= x68 x159) (= x30 x159))) (= x159 x22)))) (and (or (= x48 x91) (or (= x22 x48) (or (or (= x48 x68) (= x48 x30)) (= x105 x48)))) (and (and (or (or (= x22 x151) (or (= x105 x151) (or (= x151 x68) (= x30 x151)))) (= x91 x151)) (and (or (= x91 x43) (or (= x22 x43) (or (= x105 x43) (or (= x43 x30) (= x43 x68))))) (or (= x117 x91) (or (= x117 x22) (or (= x117 x105) (or (= x117 x30) (= x68 x117))))))) (or (or (= x22 x156) (or (= x105 x156) (or (= x68 x156) (= x30 x156)))) (= x156 x91))))) (and (or (or (or (= x105 x103) (or (= x30 x103) (= x103 x68))) (= x103 x22)) (= x91 x103)) (and (or (= x84 x91) (or (= x22 x84) (or (= x84 x105) (or (= x68 x84) (= x30 x84))))) (and (or (or (= x22 x71) (or (or (= x71 x68) (= x30 x71)) (= x71 x105))) (= x71 x91)) (and (or (or (or (or (= x28 x68) (= x28 x30)) (= x105 x28)) (= x28 x22)) (= x91 x28)) (or (= x91 x19) (or (or (= x19 x105) (or (= x68 x19) (= x19 x30))) (= x22 x19)))))))) (and (and (and (and (or (or (= x22 x66) (or (= x105 x66) (or (= x66 x30) (= x68 x66)))) (= x66 x91)) (or (or (= x22 x31) (or (= x31 x105) (or (= x31 x30) (= x31 x68)))) (= x91 x31))) (or (= x56 x91) (or (= x56 x22) (or (or (= x56 x68) (= x30 x56)) (= x105 x56))))) (or (= x44 x91) (or (or (or (= x44 x68) (= x44 x30)) (= x105 x44)) (= x44 x22)))) (or (= x101 x91) (or (or (= x105 x101) (or (= x101 x30) (= x68 x101))) (= x22 x101))))) (and (and (and (or (or (or (= x105 x62) (or (= x68 x62) (= x30 x62))) (= x22 x62)) (= x91 x62)) (and (or (or (= x22 x153) (or (= x153 x105) (or (= x153 x30) (= x153 x68)))) (= x91 x153)) (or (or (= x22 x4) (or (or (= x4 x30) (= x68 x4)) (= x105 x4))) (= x91 x4)))) (or (= x109 x91) (or (= x22 x109) (or (= x109 x105) (or (= x68 x109) (= x30 x109)))))) (or (= x129 x91) (or (or (or (= x68 x129) (= x129 x30)) (= x129 x105)) (= x22 x129)))))))
(assert (let ((x117 (x47 x30 x68)) (x156 (x47 x22 x68)) (x129 (x47 x91 x91)) (x151 (x47 x105 x68)) (x103 (x47 x91 x105)) (x128 (x47 x30 x30)) (x19 (x47 x30 x105)) (x153 (x47 x30 x91)) (x159 (x47 x91 x30)) (x71 (x47 x105 x105)) (x48 (x47 x91 x68)) (x31 (x47 x30 x22)) (x43 (x47 x68 x68)) (x56 (x47 x105 x22)) (x99 (x47 x22 x30)) (x109 (x47 x22 x91)) (x101 (x47 x91 x22)) (x62 (x47 x105 x91)) (x44 (x47 x22 x22)) (x12 (x47 x105 x30)) (x84 (x47 x22 x105)) (x4 (x47 x68 x91)) (x28 (x47 x68 x105)) (x66 (x47 x68 x22)) (x34 (x47 x68 x30))) (and (and (and (and (and (not (= x62 x56)) (and (and (and (and (not (= x151 x56)) (and (not (= x71 x151)) (and (and (not (= x56 x12)) (and (not (= x12 x151)) (not (= x12 x71)))) (not (= x12 x62))))) (not (= x62 x151))) (not (= x71 x56))) (not (= x71 x62)))) (and (and (and (not (= x153 x19)) (and (not (= x19 x31)) (and (and (and (and (and (and (not (= x19 x128)) (not (= x128 x117))) (not (= x31 x128))) (not (= x153 x128))) (not (= x19 x117))) (not (= x117 x31))) (not (= x117 x153))))) (not (= x31 x153))) (and (and (not (= x28 x4)) (and (not (= x66 x28)) (and (not (= x43 x4)) (and (not (= x43 x66)) (and (and (and (and (not (= x28 x34)) (not (= x34 x43))) (not (= x34 x66))) (not (= x34 x4))) (not (= x28 x43))))))) (not (= x66 x4))))) (and (not (= x109 x44)) (and (not (= x109 x84)) (and (not (= x44 x84)) (and (not (= x109 x156)) (and (not (= x44 x156)) (and (and (and (not (= x99 x44)) (and (not (= x99 x84)) (not (= x156 x99)))) (not (= x109 x99))) (not (= x84 x156))))))))) (and (and (not (= x103 x129)) (and (not (= x103 x101)) (and (not (= x129 x48)) (and (not (= x48 x101)) (and (and (not (= x159 x129)) (and (and (not (= x103 x159)) (not (= x159 x48))) (not (= x159 x101)))) (not (= x48 x103))))))) (not (= x101 x129)))) (and (and (and (not (= x101 x44)) (and (and (and (not (= x101 x66)) (and (not (= x66 x44)) (and (and (not (= x31 x101)) (and (and (not (= x66 x31)) (not (= x56 x31))) (not (= x44 x31)))) (not (= x66 x56))))) (not (= x44 x56))) (not (= x56 x101)))) (and (and (not (= x103 x84)) (and (and (and (not (= x28 x103)) (and (and (not (= x71 x28)) (and (and (and (not (= x28 x19)) (not (= x19 x71))) (not (= x19 x84))) (not (= x103 x19)))) (not (= x84 x28)))) (not (= x84 x71))) (not (= x103 x71)))) (and (and (not (= x99 x159)) (and (and (not (= x12 x99)) (and (and (not (= x99 x34)) (and (and (and (and (not (= x128 x34)) (not (= x128 x12))) (not (= x128 x99))) (not (= x128 x159))) (not (= x34 x12)))) (not (= x159 x34)))) (not (= x159 x12)))) (and (and (not (= x48 x151)) (and (and (and (not (= x156 x43)) (and (and (not (= x117 x48)) (and (not (= x117 x156)) (and (not (= x117 x151)) (not (= x117 x43))))) (not (= x43 x151)))) (not (= x48 x43))) (not (= x156 x151)))) (not (= x156 x48)))))) (and (not (= x109 x129)) (and (and (not (= x109 x62)) (and (and (and (and (and (not (= x153 x109)) (and (not (= x153 x4)) (not (= x62 x153)))) (not (= x153 x129))) (not (= x62 x4))) (not (= x4 x109))) (not (= x4 x129)))) (not (= x129 x62))))))))
(check-sat)
(exit)
